\Generated by Cardinal Operations

Maximize
   2 x_1 + 2 x_2 + 2 x_3 + 2 x_4 + 12 x_5 + 12 x_6 + 12 x_7 + 12 x_8 
   + 3 x_9 + 3.6 x_10 + 3.6 x_11 + 3 x_12 + 3 x_13 + 3 x_14 + 3.6 x_15 
   + 3.6 x_16 + 16 x_17 + 17 x_18 + 16 x_19 + 16 x_20 + 17 x_21 + 16 x_22 
   + 17 x_23 + 17 x_24 + 7 x_25 + 7 x_26 + 7 x_27 + 7 x_28 + 5.6 x_29 
   + 6 x_30 + 5.6 x_31 + 6 x_32 + 5.6 x_33 + 5.6 x_34 + 6 x_35 + 6 x_36 
   + 4 x_37 + 14 x_38 + 14 x_39 + 4 x_40 + 4 x_41 + 4 x_42 + 14 x_43 
   + 14 x_44 + 2.4 x_45 + 2.4 x_46 + 2.4 x_47 + 2.4 x_48 + 9 x_49 + 9 x_50 
   + 9 x_51 + 9 x_52 + 18 x_53 + 18 x_54 + 18 x_55 + 18 x_56 + 12 x_57 
   + 11 x_58 + 11 x_59 + 12 x_60 + 12 x_61 + 12 x_62 + 11 x_63 + 11 x_64 
   + 10 x_65 + 6 x_66 + 6 x_67 + 4 x_68 + 6 x_69 + 6 x_70 + 6 x_71 + 4 x_72 
   + 4 x_73 + 4 x_74 + 7 x_75 + 9 x_76 + 7 x_77 + 9 x_78 + 7 x_79 + 7 x_80 
   + 9 x_81 + 9 x_82 + 3.6 x_83 + 3.6 x_84 + 3.6 x_85 + 3.6 x_86 + 11 x_87 
   + 11 x_88 + 11 x_89 + 11 x_90 + 14 x_91 + 14 x_92 + 14 x_93 + 14 x_94 
   + 5 x_95 + 5 x_96 + 5 x_97 + 5 x_98 + 8 x_99 + 6 x_100 + 6 x_101 
   + 8 x_102 + 8 x_103 + 8 x_104 + 6 x_105 + 6 x_106 + 0.3 x_107 
   + 0.3 x_108 + 0.3 x_109 + 0.36 x_110 + 0.36 x_111 + 0.36 x_112 
   + 0.36 x_113 + 0.2 x_114 + 0.2 x_115 + 0.2 x_116 + 0.2 x_117 + 0.4 x_118 
   + 0.4 x_119 + 0.4 x_120 + 0.4 x_121 + 2.4 x_122 + 2 x_123 + 2 x_124 
   + 2.4 x_125 + 2.4 x_126 + 2.4 x_127 + 2 x_128 + 2 x_129 + 2 x_130 
   + 2 x_131 + 2 x_132 + 2 x_133 + x_134 + 0.3 x_135 + 0.3 x_136 + x_137 
   + x_138 + x_139 + 0.3 x_140 + 0.3 x_141 + 0.24 x_142 + 0.24 x_143 
   + 0.24 x_144 + 0.24 x_145 + 0.75 x_146 + 0.75 x_147 + 0.75 x_148 
   + 0.75 x_149 + 0.9 x_150 + 0.75 x_151 + 0.9 x_152 + 0.75 x_153 
   + 0.9 x_154 + 0.9 x_155 + 0.75 x_156 + 0.75 x_157 + 0.15 x_158 
   + 0.15 x_159 + 0.15 x_160 + 0.15 x_161 
Subject To
 inventory_constraint: x_1 <= 1000
 x_2 <= 1000
 x_3 <= 2000
 x_4 <= 1000
 x_5 <= 6000
 x_6 <= 6000
 x_7 <= 12000
 x_8 <= 6000
 x_9 <= 1500
 x_10 <= 1800
 x_11 <= 1800
 x_12 <= 1500
 x_13 <= 4500
 x_14 <= 1500
 x_15 <= 1800
 x_16 <= 1800
 x_17 <= 8000
 x_18 <= 8500
 x_19 <= 8000
 x_20 <= 24000
 x_21 <= 8500
 x_22 <= 8000
 x_23 <= 8500
 x_24 <= 8500
 x_25 <= 3500
 x_26 <= 3500
 x_27 <= 10500
 x_28 <= 3500
 x_29 <= 2800
 x_30 <= 3000
 x_31 <= 2800
 x_32 <= 3000
 x_33 <= 8400
 x_34 <= 2800
 x_35 <= 6000
 x_36 <= 3000
 x_37 <= 2000
 x_38 <= 7000
 x_39 <= 7000
 x_40 <= 6000
 x_41 <= 2000
 x_42 <= 2000
 x_43 <= 7000
 x_44 <= 7000
 x_45 <= 1200
 x_46 <= 1200
 x_47 <= 2400
 x_48 <= 1200
 x_49 <= 4500
 x_50 <= 4500
 x_51 <= 13500
 x_52 <= 4500
 x_53 <= 9000
 x_54 <= 9000
 x_55 <= 27000
 x_56 <= 9000
 x_57 <= 6000
 x_58 <= 5500
 x_59 <= 5500
 x_60 <= 6000
 x_61 <= 18000
 x_62 <= 6000
 x_63 <= 5500
 x_64 <= 5500
 x_65 <= 30000
 x_66 <= 3000
 x_67 <= 3000
 x_68 <= 2000
 x_69 <= 3000
 x_70 <= 6000
 x_71 <= 3000
 x_72 <= 2000
 x_73 <= 4000
 x_74 <= 2000
 x_75 <= 3500
 x_76 <= 4500
 x_77 <= 3500
 x_78 <= 4500
 x_79 <= 10500
 x_80 <= 3500
 x_81 <= 9000
 x_82 <= 4500
 x_83 <= 1800
 x_84 <= 1800
 x_85 <= 3600
 x_86 <= 1800
 x_87 <= 5500
 x_88 <= 5500
 x_89 <= 11000
 x_90 <= 5500
 x_91 <= 7000
 x_92 <= 7000
 x_93 <= 21000
 x_94 <= 7000
 x_95 <= 2500
 x_96 <= 2500
 x_97 <= 5000
 x_98 <= 2500
 x_99 <= 4000
 x_100 <= 3000
 x_101 <= 3000
 x_102 <= 4000
 x_103 <= 12000
 x_104 <= 4000
 x_105 <= 3000
 x_106 <= 3000
 x_107 <= 150
 x_108 <= 150
 x_109 <= 450
 x_110 <= 120
 x_111 <= 120
 x_112 <= 240
 x_113 <= 120
 x_114 <= 100
 x_115 <= 100
 x_116 <= 200
 x_117 <= 100
 x_118 <= 200
 x_119 <= 200
 x_120 <= 600
 x_121 <= 200
 x_122 <= 1200
 x_123 <= 1000
 x_124 <= 1000
 x_125 <= 1200
 x_126 <= 3600
 x_127 <= 1200
 x_128 <= 1000
 x_129 <= 1000
 x_130 <= 1000
 x_131 <= 1000
 x_132 <= 3000
 x_133 <= 1000
 x_134 <= 500
 x_135 <= 150
 x_136 <= 150
 x_137 <= 500
 x_138 <= 1500
 x_139 <= 500
 x_140 <= 150
 x_141 <= 150
 x_142 <= 80
 x_143 <= 80
 x_144 <= 160
 x_145 <= 80
 x_146 <= 250
 x_147 <= 250
 x_148 <= 750
 x_149 <= 250
 x_150 <= 300
 x_151 <= 250
 x_152 <= 300
 x_153 <= 250
 x_154 <= 900
 x_155 <= 300
 x_156 <= 250
 x_157 <= 250
 x_158 <= 50
 x_159 <= 50
 x_160 <= 100
 x_161 <= 50
 demand_constraint: x_1 <= 140
 x_2 <= 136
 x_3 <= 268
 x_4 <= 121
 x_5 <= 812
 x_6 <= 875
 x_7 <= 1519
 x_8 <= 868
 x_9 <= 192
 x_10 <= 230
 x_11 <= 264
 x_12 <= 195
 x_13 <= 612
 x_14 <= 203
 x_15 <= 223
 x_16 <= 266
 x_17 <= 982
 x_18 <= 1268
 x_19 <= 1175
 x_20 <= 3515
 x_21 <= 1113
 x_22 <= 1104
 x_23 <= 1153
 x_24 <= 1200
 x_25 <= 453
 x_26 <= 486
 x_27 <= 1371
 x_28 <= 455
 x_29 <= 366
 x_30 <= 382
 x_31 <= 412
 x_32 <= 381
 x_33 <= 1121
 x_34 <= 390
 x_35 <= 848
 x_36 <= 419
 x_37 <= 295
 x_38 <= 1002
 x_39 <= 958
 x_40 <= 777
 x_41 <= 271
 x_42 <= 244
 x_43 <= 990
 x_44 <= 1000
 x_45 <= 169
 x_46 <= 155
 x_47 <= 327
 x_48 <= 174
 x_49 <= 669
 x_50 <= 623
 x_51 <= 1716
 x_52 <= 564
 x_53 <= 1297
 x_54 <= 1156
 x_55 <= 3600
 x_56 <= 1227
 x_57 <= 779
 x_58 <= 758
 x_59 <= 667
 x_60 <= 742
 x_61 <= 2446
 x_62 <= 781
 x_63 <= 713
 x_64 <= 691
 x_65 <= 3965
 x_66 <= 400
 x_67 <= 384
 x_68 <= 249
 x_69 <= 405
 x_70 <= 813
 x_71 <= 364
 x_72 <= 258
 x_73 <= 549
 x_74 <= 266
 x_75 <= 456
 x_76 <= 589
 x_77 <= 461
 x_78 <= 645
 x_79 <= 1367
 x_80 <= 519
 x_81 <= 1186
 x_82 <= 639
 x_83 <= 249
 x_84 <= 225
 x_85 <= 516
 x_86 <= 221
 x_87 <= 781
 x_88 <= 786
 x_89 <= 1400
 x_90 <= 771
 x_91 <= 904
 x_92 <= 885
 x_93 <= 2938
 x_94 <= 879
 x_95 <= 348
 x_96 <= 370
 x_97 <= 683
 x_98 <= 313
 x_99 <= 495
 x_100 <= 381
 x_101 <= 370
 x_102 <= 557
 x_103 <= 1625
 x_104 <= 587
 x_105 <= 441
 x_106 <= 389
 x_107 <= 19
 x_108 <= 20
 x_109 <= 61
 x_110 <= 16
 x_111 <= 16
 x_112 <= 32
 x_113 <= 15
 x_114 <= 13
 x_115 <= 14
 x_116 <= 28
 x_117 <= 13
 x_118 <= 30
 x_119 <= 28
 x_120 <= 80
 x_121 <= 28
 x_122 <= 174
 x_123 <= 150
 x_124 <= 135
 x_125 <= 151
 x_126 <= 513
 x_127 <= 177
 x_128 <= 128
 x_129 <= 125
 x_130 <= 136
 x_131 <= 134
 x_132 <= 386
 x_133 <= 144
 x_134 <= 73
 x_135 <= 19
 x_136 <= 20
 x_137 <= 72
 x_138 <= 198
 x_139 <= 63
 x_140 <= 20
 x_141 <= 22
 x_142 <= 11
 x_143 <= 11
 x_144 <= 23
 x_145 <= 12
 x_146 <= 35
 x_147 <= 35
 x_148 <= 94
 x_149 <= 31
 x_150 <= 44
 x_151 <= 36
 x_152 <= 42
 x_153 <= 37
 x_154 <= 119
 x_155 <= 41
 x_156 <= 36
 x_157 <= 37
 x_158 <= 7
 x_159 <= 8
 x_160 <= 14
 x_161 <= 8
Generals
 x_1  x_2  x_3  x_4  x_5  x_6  x_7  x_8  x_9  x_10  x_11  x_12  x_13  x_14  
 x_15  x_16  x_17  x_18  x_19  x_20  x_21  x_22  x_23  x_24  x_25  x_26  
 x_27  x_28  x_29  x_30  x_31  x_32  x_33  x_34  x_35  x_36  x_37  x_38  
 x_39  x_40  x_41  x_42  x_43  x_44  x_45  x_46  x_47  x_48  x_49  x_50  
 x_51  x_52  x_53  x_54  x_55  x_56  x_57  x_58  x_59  x_60  x_61  x_62  
 x_63  x_64  x_65  x_66  x_67  x_68  x_69  x_70  x_71  x_72  x_73  x_74  
 x_75  x_76  x_77  x_78  x_79  x_80  x_81  x_82  x_83  x_84  x_85  x_86  
 x_87  x_88  x_89  x_90  x_91  x_92  x_93  x_94  x_95  x_96  x_97  x_98  
 x_99  x_100  x_101  x_102  x_103  x_104  x_105  x_106  x_107  x_108  
 x_109  x_110  x_111  x_112  x_113  x_114  x_115  x_116  x_117  x_118  
 x_119  x_120  x_121  x_122  x_123  x_124  x_125  x_126  x_127  x_128  
 x_129  x_130  x_131  x_132  x_133  x_134  x_135  x_136  x_137  x_138  
 x_139  x_140  x_141  x_142  x_143  x_144  x_145  x_146  x_147  x_148  
 x_149  x_150  x_151  x_152  x_153  x_154  x_155  x_156  x_157  x_158  
 x_159  x_160  x_161  
END

